(set-logic ALL)
(declare-const GEN1 Real)
(declare-const GEN2 Int)
(declare-const GEN3 Int)
(declare-const BAV4 Bool)
(declare-const BAV5 Bool)
(declare-const BAV6 Bool)
(declare-const BAV7 Bool)
(declare-const BAV8 Bool)
(declare-const BAV9 Bool)
(declare-const BAV10 Bool)
(declare-fun _substvar_15_ () Real)
(declare-fun _substvar_17_ () Real)
(assert (and (<= GEN1 _substvar_15_) (and (<= GEN1 _substvar_15_) (and (<= GEN1 _substvar_15_) (= (* _substvar_15_ _substvar_15_) (+ GEN2 (* _substvar_17_ (* _substvar_17_ (- GEN3)))))))))
(assert (= BAV4 (and (<= GEN1 _substvar_15_) (and (<= GEN1 _substvar_15_) (and (<= GEN1 _substvar_15_) (= (* _substvar_15_ _substvar_15_) (+ GEN2 (* _substvar_17_ (* _substvar_17_ (- GEN3))))))))))
(assert (= BAV5 (<= GEN1 _substvar_15_)))
(assert (= BAV6 (and (<= GEN1 _substvar_15_) (and (<= GEN1 _substvar_15_) (= (* _substvar_15_ _substvar_15_) (+ GEN2 (* _substvar_17_ (* _substvar_17_ (- GEN3)))))))))
(assert (= BAV7 (<= GEN1 _substvar_15_)))
(assert (= BAV8 (and (<= GEN1 _substvar_15_) (= (* _substvar_15_ _substvar_15_) (+ GEN2 (* _substvar_17_ (* _substvar_17_ (- GEN3))))))))
(assert (= BAV9 (<= GEN1 _substvar_15_)))
(assert (= BAV10 (= (* _substvar_15_ _substvar_15_) (+ GEN2 (* _substvar_17_ (* _substvar_17_ (- GEN3)))))))
(check-sat)